NAME : ftv55.2139.tour
COMMENT : Cost = 431_2139
COMMENT : Found by LKH [Keld Helsgaun] Tue Sep 12 07:40:13 2017
TYPE : TOUR
DIMENSION : 60
TOUR_SECTION
1
34
12
20
19
40
39
11
52
13
16
17
18
57
26
25
43
22
23
21
41
42
51
24
55
28
50
27
53
59
32
29
54
44
45
46
31
47
30
60
3
14
36
8
33
9
37
10
38
15
58
56
35
2
4
5
7
6
48
49
-1
EOF
